objective value:                     69.9999999999999
B2578(4)                            0.999999999999998 	(obj:1)
B280(4)                                             1 	(obj:1)
B420(3)                             0.999999999999997 	(obj:1)
B601(4)                                             1 	(obj:1)
B635(4)                                             1 	(obj:1)
B793(3)                             0.999999999999999 	(obj:1)
B815(3)                             0.999999999999998 	(obj:1)
B839(4)                                             1 	(obj:1)
B959(3)                             0.999999999999997 	(obj:1)
B1010(3)                            0.999999999999999 	(obj:1)
B1020(4)                            0.999999999999999 	(obj:1)
B1053(3)                            0.999999999999999 	(obj:1)
B1077(3)                            0.999999999999997 	(obj:1)
B1085(4)                            0.999999999999997 	(obj:1)
B1177(3)                            0.999999999999997 	(obj:1)
B1194(4)                            0.999999999999999 	(obj:1)
B1205(4)                            0.999999999999999 	(obj:1)
B1233(4)                                            1 	(obj:1)
B1247(4)                                            1 	(obj:1)
B1269(4)                            0.999999999999999 	(obj:1)
B1298(3)                            0.999999999999996 	(obj:1)
B1332(3)                                            1 	(obj:1)
B1361(4)                                            1 	(obj:1)
B1376(4)                                            1 	(obj:1)
B1398(3)                            0.999999999999995 	(obj:1)
B1431(3)                            0.999999999999996 	(obj:1)
B1444(4)                                            1 	(obj:1)
B1479(3)                                            1 	(obj:1)
B1500(4)                            0.999999999999999 	(obj:1)
B1541(3)                            0.999999999999993 	(obj:1)
B1607(5)                                            1 	(obj:1)
B1620(4)                                            1 	(obj:1)
B1653(3)                            0.999999999999997 	(obj:1)
B1663(4)                                            1 	(obj:1)
B1687(4)                                            1 	(obj:1)
B1716(3)                                            1 	(obj:1)
B1729(3)                            0.999999999999999 	(obj:1)
B1747(3)                                            1 	(obj:1)
B1761(4)                                            1 	(obj:1)
B1800(3)                                            1 	(obj:1)
B1820(4)                                            1 	(obj:1)
B1839(4)                            0.999999999999999 	(obj:1)
B1882(3)                            0.999999999999999 	(obj:1)
B1919(3)                            0.999999999999998 	(obj:1)
B1953(4)                            0.999999999999999 	(obj:1)
B1970(3)                                            1 	(obj:1)
B1982(3)                                            1 	(obj:1)
B2001(3)                            0.999999999999997 	(obj:1)
B2039(3)                                            1 	(obj:1)
B2054(3)                            0.999999999999997 	(obj:1)
B2067(4)                            0.999999999999999 	(obj:1)
B2113(4)                            0.999999999999996 	(obj:1)
B2125(3)                                            1 	(obj:1)
B2158(4)                                            1 	(obj:1)
B2175(3)                            0.999999999999998 	(obj:1)
B2194(3)                                            1 	(obj:1)
B2215(3)                                            1 	(obj:1)
B2230(3)                                            1 	(obj:1)
B2257(3)                                            1 	(obj:1)
B2278(4)                                            1 	(obj:1)
B2296(4)                                            1 	(obj:1)
B2352(3)                                            1 	(obj:1)
B2375(3)                            0.999999999999998 	(obj:1)
B2395(4)                                            1 	(obj:1)
B2420(3)                            0.999999999999999 	(obj:1)
B2439(4)                            0.999999999999999 	(obj:1)
B2476(4)                                            1 	(obj:1)
B2496(3)                            0.999999999999998 	(obj:1)
B2516(4)                                            1 	(obj:1)
B2552(4)                                            1 	(obj:1)
